
******************************************************************************
This program contains Ipopt, a library for large-scale nonlinear optimization.
 Ipopt is released as open source code under the Eclipse Public License (EPL).
         For more information visit https://github.com/coin-or/Ipopt
******************************************************************************

This is Ipopt version 3.13.4, running with linear solver mumps.
NOTE: Other linear solvers might be more efficient (see Ipopt documentation).

Number of nonzeros in equality constraint Jacobian...:        0
Number of nonzeros in inequality constraint Jacobian.:        2
Number of nonzeros in Lagrangian Hessian.............:        3

Total number of variables............................:        2
                     variables with only lower bounds:        0
                variables with lower and upper bounds:        1
                     variables with only upper bounds:        1
Total number of equality constraints.................:        0
Total number of inequality constraints...............:        1
        inequality constraints with only lower bounds:        0
   inequality constraints with lower and upper bounds:        0
        inequality constraints with only upper bounds:        1

iter    objective    inf_pr   inf_du lg(mu)  ||d||  lg(rg) alpha_du alpha_pr  ls
   0  1.2997000e+00 0.00e+00 4.29e+00  -1.0 0.00e+00    -  0.00e+00 0.00e+00   0
   1  4.5361290e-01 0.00e+00 2.41e+00  -1.0 4.35e-01    -  4.59e-01 6.35e-01f  1
   2  5.5431421e-01 0.00e+00 5.91e-02  -1.0 1.22e-01    -  1.00e+00 1.00e+00f  1
   3  3.0224698e-01 0.00e+00 1.58e-02  -1.7 5.64e-02    -  1.00e+00 1.00e+00f  1
   4  2.5558473e-01 0.00e+00 2.94e-04  -2.5 7.49e-03    -  1.00e+00 1.00e+00h  1
   5  2.5030180e-01 0.00e+00 5.43e-06  -3.8 6.84e-04    -  1.00e+00 1.00e+00h  1
   6  2.5000360e-01 0.00e+00 1.67e-08  -5.7 3.83e-05    -  1.00e+00 1.00e+00h  1
   7  2.4999992e-01 0.00e+00 2.49e-12  -8.6 4.64e-07    -  1.00e+00 1.00e+00h  1

Number of Iterations....: 7

                                   (scaled)                 (unscaled)
Objective...............:   2.4999991501233096e-01    2.4999991501233096e-01
Dual infeasibility......:   2.4923148672798348e-12    2.4923148672798348e-12
Constraint violation....:   0.0000000000000000e+00    0.0000000000000000e+00
Complementarity.........:   2.5082196362733705e-09    2.5082196362733705e-09
Overall NLP error.......:   2.5082196362733705e-09    2.5082196362733705e-09


Number of objective function evaluations             = 8
Number of objective gradient evaluations             = 8
Number of equality constraint evaluations            = 0
Number of inequality constraint evaluations          = 8
Number of equality constraint Jacobian evaluations   = 0
Number of inequality constraint Jacobian evaluations = 8
Number of Lagrangian Hessian evaluations             = 7
Total CPU secs in IPOPT (w/o function evaluations)   =      3.996
Total CPU secs in NLP function evaluations           =      1.523

EXIT: Optimal Solution Found.
